param i_max := 3;
param b :=
1 223066
2 301999
3 225993
;
param j_max := 10;
param e :=
1 249157
2 348192
3 317660
4 282072
5 449708
6 87473
7 278373
8 310193
9 207917
10 170856
;
param c := 1000000;
end;
